(set-logic QF_UF)
(declare-fun A0 () Bool)
(declare-fun A1 () Bool)
(declare-fun A2 () Bool)
(declare-fun A3 () Bool)
(declare-fun A4 () Bool)
(declare-fun A5 () Bool)
(declare-fun A6 () Bool)
(declare-fun A7 () Bool)
(declare-fun A8 () Bool)
(declare-fun A9 () Bool)
(declare-fun A10 () Bool)
(declare-fun A11 () Bool)
(declare-fun A12 () Bool)
(declare-fun A13 () Bool)
(declare-fun A14 () Bool)
(declare-fun A15 () Bool)
(declare-fun A16 () Bool)
(declare-fun A17 () Bool)
(declare-fun A18 () Bool)
(declare-fun A19 () Bool)
(declare-fun A20 () Bool)
(declare-fun A21 () Bool)
(declare-fun A22 () Bool)
(declare-fun A23 () Bool)
(declare-fun A24 () Bool)
(assert (let ((.def_0 (not A21))) (let ((.def_1 (or A21 .def_0))) (let ((.def_2 (and A10 A24))) (let ((.def_3 (not .def_2))) (let ((.def_4 (= .def_3 .def_1))) (let ((.def_5 (not A23))) (let ((.def_6 (and A19 .def_5))) (let ((.def_7 (not .def_6))) (let ((.def_8 (not A1))) (let ((.def_9 (not A0))) (let ((.def_10 (or .def_9 .def_8))) (let ((.def_11 (not .def_10))) (let ((.def_12 (or .def_11 .def_7))) (let ((.def_13 (not .def_12))) (let ((.def_14 (and .def_13 .def_4))) (let ((.def_15 (not .def_14))) (let ((.def_16 (not A8))) (let ((.def_17 (and A8 .def_16))) (let ((.def_18 (not .def_17))) (let ((.def_19 (not A22))) (let ((.def_20 (and A0 .def_19))) (let ((.def_21 (not .def_20))) (let ((.def_22 (or .def_21 .def_18))) (let ((.def_23 (not .def_22))) (let ((.def_24 (and A21 A17))) (let ((.def_25 (not .def_24))) (let ((.def_26 (not A18))) (let ((.def_27 (or .def_26 A21))) (let ((.def_28 (or .def_27 .def_25))) (let ((.def_29 (not .def_28))) (let ((.def_30 (or .def_29 .def_23))) (let ((.def_31 (not .def_30))) (let ((.def_32 (or .def_31 .def_15))) (let ((.def_33 (not A19))) (let ((.def_34 (not A12))) (let ((.def_35 (and .def_34 .def_33))) (let ((.def_36 (and A22 A3))) (let ((.def_37 (or .def_36 .def_35))) (let ((.def_38 (not .def_37))) (let ((.def_39 (not A20))) (let ((.def_40 (not A5))) (let ((.def_41 (and .def_40 .def_39))) (let ((.def_42 (not .def_41))) (let ((.def_43 (not A16))) (let ((.def_44 (= .def_43 A21))) (let ((.def_45 (or .def_44 .def_42))) (let ((.def_46 (or .def_45 .def_38))) (let ((.def_47 (not .def_46))) (let ((.def_48 (not A4))) (let ((.def_49 (and .def_48 A15))) (let ((.def_50 (or A24 .def_43))) (let ((.def_51 (or .def_50 .def_49))) (let ((.def_52 (not .def_51))) (let ((.def_53 (not A24))) (let ((.def_54 (not A14))) (let ((.def_55 (= .def_54 .def_53))) (let ((.def_56 (not .def_55))) (let ((.def_57 (and .def_19 .def_54))) (let ((.def_58 (= .def_57 .def_56))) (let ((.def_59 (not .def_58))) (let ((.def_60 (and .def_59 .def_52))) (let ((.def_61 (not .def_60))) (let ((.def_62 (or .def_61 .def_47))) (let ((.def_63 (or .def_62 .def_32))) (let ((.def_64 (not .def_63))) (let ((.def_65 (or A5 A10))) (let ((.def_66 (not .def_65))) (let ((.def_67 (or .def_54 A13))) (let ((.def_68 (or .def_67 .def_66))) (let ((.def_69 (not A3))) (let ((.def_70 (= .def_34 .def_69))) (let ((.def_71 (not .def_70))) (let ((.def_72 (not A6))) (let ((.def_73 (or .def_72 A18))) (let ((.def_74 (or .def_73 .def_71))) (let ((.def_75 (not .def_74))) (let ((.def_76 (and .def_75 .def_68))) (let ((.def_77 (or .def_48 A14))) (let ((.def_78 (not A13))) (let ((.def_79 (or A9 .def_78))) (let ((.def_80 (not .def_79))) (let ((.def_81 (and .def_80 .def_77))) (let ((.def_82 (not .def_81))) (let ((.def_83 (and .def_40 A24))) (let ((.def_84 (or A1 A3))) (let ((.def_85 (not .def_84))) (let ((.def_86 (or .def_85 .def_83))) (let ((.def_87 (not .def_86))) (let ((.def_88 (or .def_87 .def_82))) (let ((.def_89 (not .def_88))) (let ((.def_90 (and .def_89 .def_76))) (let ((.def_91 (or A14 .def_39))) (let ((.def_92 (and .def_78 .def_54))) (let ((.def_93 (and .def_92 .def_91))) (let ((.def_94 (or .def_33 A3))) (let ((.def_95 (or A17 A10))) (let ((.def_96 (and .def_95 .def_94))) (let ((.def_97 (and .def_96 .def_93))) (let ((.def_98 (not .def_97))) (let ((.def_99 (= .def_0 A6))) (let ((.def_100 (not .def_99))) (let ((.def_101 (and A15 A0))) (let ((.def_102 (not .def_101))) (let ((.def_103 (or .def_102 .def_100))) (let ((.def_104 (not A2))) (let ((.def_105 (= .def_72 .def_104))) (let ((.def_106 (not .def_105))) (let ((.def_107 (not A9))) (let ((.def_108 (and .def_16 .def_107))) (let ((.def_109 (not .def_108))) (let ((.def_110 (or .def_109 .def_106))) (let ((.def_111 (or .def_110 .def_103))) (let ((.def_112 (not .def_111))) (let ((.def_113 (or .def_112 .def_98))) (let ((.def_114 (not .def_113))) (let ((.def_115 (or .def_114 .def_90))) (let ((.def_116 (not .def_115))) (let ((.def_117 (and .def_116 .def_64))) (let ((.def_118 (or A24 .def_39))) (let ((.def_119 (= .def_53 A10))) (let ((.def_120 (or .def_119 .def_118))) (let ((.def_121 (not .def_120))) (let ((.def_122 (or .def_54 A3))) (let ((.def_123 (and A16 .def_33))) (let ((.def_124 (not .def_123))) (let ((.def_125 (and .def_124 .def_122))) (let ((.def_126 (not .def_125))) (let ((.def_127 (or .def_126 .def_121))) (let ((.def_128 (not .def_127))) (let ((.def_129 (or A1 .def_9))) (let ((.def_130 (not A11))) (let ((.def_131 (or .def_107 .def_130))) (let ((.def_132 (or .def_131 .def_129))) (let ((.def_133 (and .def_26 A7))) (let ((.def_134 (not .def_133))) (let ((.def_135 (and A15 .def_43))) (let ((.def_136 (not .def_135))) (let ((.def_137 (or .def_136 .def_134))) (let ((.def_138 (or .def_137 .def_132))) (let ((.def_139 (or .def_138 .def_128))) (let ((.def_140 (or A6 .def_104))) (let ((.def_141 (not .def_140))) (let ((.def_142 (and .def_34 A14))) (let ((.def_143 (not .def_142))) (let ((.def_144 (and .def_143 .def_141))) (let ((.def_145 (not .def_144))) (let ((.def_146 (or A24 .def_130))) (let ((.def_147 (and .def_19 A6))) (let ((.def_148 (and .def_147 .def_146))) (let ((.def_149 (not .def_148))) (let ((.def_150 (or .def_149 .def_145))) (let ((.def_151 (not .def_150))) (let ((.def_152 (and .def_5 .def_53))) (let ((.def_153 (and .def_34 .def_69))) (let ((.def_154 (not .def_153))) (let ((.def_155 (and .def_154 .def_152))) (let ((.def_156 (not .def_155))) (let ((.def_157 (or .def_53 A11))) (let ((.def_158 (not A7))) (let ((.def_159 (not A15))) (let ((.def_160 (and .def_159 .def_158))) (let ((.def_161 (not .def_160))) (let ((.def_162 (or .def_161 .def_157))) (let ((.def_163 (not .def_162))) (let ((.def_164 (and .def_163 .def_156))) (let ((.def_165 (not .def_164))) (let ((.def_166 (and .def_165 .def_151))) (let ((.def_167 (and .def_166 .def_139))) (let ((.def_168 (not .def_167))) (let ((.def_169 (and A20 .def_26))) (let ((.def_170 (not .def_169))) (let ((.def_171 (or A12 .def_53))) (let ((.def_172 (= .def_171 .def_170))) (let ((.def_173 (not .def_172))) (let ((.def_174 (and .def_0 .def_43))) (let ((.def_175 (or A7 A9))) (let ((.def_176 (not .def_175))) (let ((.def_177 (or .def_176 .def_174))) (let ((.def_178 (or .def_177 .def_173))) (let ((.def_179 (and A16 .def_54))) (let ((.def_180 (and A14 A21))) (let ((.def_181 (or .def_180 .def_179))) (let ((.def_182 (or A9 .def_9))) (let ((.def_183 (not .def_182))) (let ((.def_184 (and A6 A8))) (let ((.def_185 (and .def_184 .def_183))) (let ((.def_186 (not .def_185))) (let ((.def_187 (or .def_186 .def_181))) (let ((.def_188 (not .def_187))) (let ((.def_189 (and .def_188 .def_178))) (let ((.def_190 (not .def_189))) (let ((.def_191 (or .def_43 A15))) (let ((.def_192 (or A20 .def_8))) (let ((.def_193 (not .def_192))) (let ((.def_194 (and .def_193 .def_191))) (let ((.def_195 (and .def_9 .def_130))) (let ((.def_196 (or .def_107 A4))) (let ((.def_197 (and .def_196 .def_195))) (let ((.def_198 (not .def_197))) (let ((.def_199 (and .def_198 .def_194))) (let ((.def_200 (or A4 .def_130))) (let ((.def_201 (or .def_19 A6))) (let ((.def_202 (= .def_201 .def_200))) (let ((.def_203 (and .def_69 .def_9))) (let ((.def_204 (not .def_203))) (let ((.def_205 (and .def_19 A20))) (let ((.def_206 (or .def_205 .def_204))) (let ((.def_207 (and .def_206 .def_202))) (let ((.def_208 (not .def_207))) (let ((.def_209 (and .def_208 .def_199))) (let ((.def_210 (or .def_209 .def_190))) (let ((.def_211 (or .def_210 .def_168))) (let ((.def_212 (or .def_211 .def_117))) (let ((.def_213 (not .def_212))) (let ((.def_214 (and A7 A21))) (let ((.def_215 (not .def_214))) (let ((.def_216 (and .def_54 .def_78))) (let ((.def_217 (= .def_216 .def_215))) (let ((.def_218 (and A9 A5))) (let ((.def_219 (or .def_9 A16))) (let ((.def_220 (or .def_219 .def_218))) (let ((.def_221 (and .def_220 .def_217))) (let ((.def_222 (not .def_221))) (let ((.def_223 (or A10 A24))) (let ((.def_224 (or A0 .def_107))) (let ((.def_225 (not .def_224))) (let ((.def_226 (or .def_225 .def_223))) (let ((.def_227 (not .def_226))) (let ((.def_228 (or .def_16 .def_78))) (let ((.def_229 (not .def_228))) (let ((.def_230 (and .def_107 .def_104))) (let ((.def_231 (not .def_230))) (let ((.def_232 (and .def_231 .def_229))) (let ((.def_233 (not .def_232))) (let ((.def_234 (and .def_233 .def_227))) (let ((.def_235 (or .def_234 .def_222))) (let ((.def_236 (or A10 .def_43))) (let ((.def_237 (not .def_236))) (let ((.def_238 (and A12 .def_158))) (let ((.def_239 (not .def_238))) (let ((.def_240 (and .def_239 .def_237))) (let ((.def_241 (or .def_40 A8))) (let ((.def_242 (and A13 .def_54))) (let ((.def_243 (not .def_242))) (let ((.def_244 (and .def_243 .def_241))) (let ((.def_245 (not .def_244))) (let ((.def_246 (and .def_245 .def_240))) (let ((.def_247 (and A16 .def_5))) (let ((.def_248 (not .def_247))) (let ((.def_249 (or .def_158 A4))) (let ((.def_250 (not .def_249))) (let ((.def_251 (and .def_250 .def_248))) (let ((.def_252 (or .def_34 A15))) (let ((.def_253 (= A4 .def_159))) (let ((.def_254 (or .def_253 .def_252))) (let ((.def_255 (or .def_254 .def_251))) (let ((.def_256 (not .def_255))) (let ((.def_257 (or .def_256 .def_246))) (let ((.def_258 (and .def_257 .def_235))) (let ((.def_259 (and A20 .def_34))) (let ((.def_260 (or A6 A6))) (let ((.def_261 (or .def_260 .def_259))) (let ((.def_262 (not .def_261))) (let ((.def_263 (and A23 A16))) (let ((.def_264 (or .def_107 A13))) (let ((.def_265 (not .def_264))) (let ((.def_266 (or .def_265 .def_263))) (let ((.def_267 (not .def_266))) (let ((.def_268 (or .def_267 .def_262))) (let ((.def_269 (or A13 .def_72))) (let ((.def_270 (not .def_269))) (let ((.def_271 (or A19 A24))) (let ((.def_272 (or .def_271 .def_270))) (let ((.def_273 (not .def_272))) (let ((.def_274 (and A19 .def_104))) (let ((.def_275 (not .def_274))) (let ((.def_276 (and .def_159 A16))) (let ((.def_277 (not .def_276))) (let ((.def_278 (and .def_277 .def_275))) (let ((.def_279 (or .def_278 .def_273))) (let ((.def_280 (not .def_279))) (let ((.def_281 (or .def_280 .def_268))) (let ((.def_282 (not .def_281))) (let ((.def_283 (or A2 A14))) (let ((.def_284 (not .def_283))) (let ((.def_285 (= A16 .def_43))) (let ((.def_286 (not .def_285))) (let ((.def_287 (and .def_286 .def_284))) (let ((.def_288 (or A22 .def_69))) (let ((.def_289 (not .def_288))) (let ((.def_290 (and .def_19 .def_104))) (let ((.def_291 (or .def_290 .def_289))) (let ((.def_292 (or .def_291 .def_287))) (let ((.def_293 (or .def_40 .def_48))) (let ((.def_294 (not .def_293))) (let ((.def_295 (or .def_16 .def_39))) (let ((.def_296 (not .def_295))) (let ((.def_297 (and .def_296 .def_294))) (let ((.def_298 (and .def_0 A22))) (let ((.def_299 (and .def_48 A8))) (let ((.def_300 (or .def_299 .def_298))) (let ((.def_301 (or .def_300 .def_297))) (let ((.def_302 (not .def_301))) (let ((.def_303 (or .def_302 .def_292))) (let ((.def_304 (and .def_303 .def_282))) (let ((.def_305 (not .def_304))) (let ((.def_306 (and .def_305 .def_258))) (let ((.def_307 (not A17))) (let ((.def_308 (not A10))) (let ((.def_309 (or .def_308 .def_307))) (let ((.def_310 (not .def_309))) (let ((.def_311 (or A22 A2))) (let ((.def_312 (and .def_311 .def_310))) (let ((.def_313 (and .def_26 .def_8))) (let ((.def_314 (or .def_276 .def_313))) (let ((.def_315 (or .def_314 .def_312))) (let ((.def_316 (not .def_118))) (let ((.def_317 (or .def_69 .def_26))) (let ((.def_318 (not .def_317))) (let ((.def_319 (or .def_318 .def_316))) (let ((.def_320 (and .def_39 .def_26))) (let ((.def_321 (not .def_320))) (let ((.def_322 (and A8 .def_159))) (let ((.def_323 (or .def_322 .def_321))) (let ((.def_324 (not .def_323))) (let ((.def_325 (or .def_324 .def_319))) (let ((.def_326 (not .def_325))) (let ((.def_327 (= .def_326 .def_315))) (let ((.def_328 (and A15 .def_308))) (let ((.def_329 (and A13 A7))) (let ((.def_330 (not .def_329))) (let ((.def_331 (and .def_330 .def_328))) (let ((.def_332 (not .def_331))) (let ((.def_333 (and A22 .def_107))) (let ((.def_334 (or A17 .def_40))) (let ((.def_335 (or .def_334 .def_333))) (let ((.def_336 (not .def_335))) (let ((.def_337 (or .def_336 .def_332))) (let ((.def_338 (not .def_337))) (let ((.def_339 (and .def_8 A5))) (let ((.def_340 (not .def_339))) (let ((.def_341 (or A23 .def_43))) (let ((.def_342 (and .def_341 .def_340))) (let ((.def_343 (= A5 A2))) (let ((.def_344 (not .def_343))) (let ((.def_345 (and A3 A4))) (let ((.def_346 (and .def_345 .def_344))) (let ((.def_347 (or .def_346 .def_342))) (let ((.def_348 (or .def_347 .def_338))) (let ((.def_349 (or .def_348 .def_327))) (let ((.def_350 (and .def_107 A10))) (let ((.def_351 (not .def_350))) (let ((.def_352 (or .def_158 A3))) (let ((.def_353 (not .def_352))) (let ((.def_354 (or .def_353 .def_351))) (let ((.def_355 (or .def_8 .def_158))) (let ((.def_356 (and A24 A14))) (let ((.def_357 (not .def_356))) (let ((.def_358 (or .def_357 .def_355))) (let ((.def_359 (or .def_358 .def_354))) (let ((.def_360 (and A19 A8))) (let ((.def_361 (and .def_72 .def_307))) (let ((.def_362 (not .def_361))) (let ((.def_363 (and .def_362 .def_360))) (let ((.def_364 (not .def_363))) (let ((.def_365 (and .def_0 A7))) (let ((.def_366 (and A5 .def_308))) (let ((.def_367 (not .def_366))) (let ((.def_368 (or .def_367 .def_365))) (let ((.def_369 (or .def_368 .def_364))) (let ((.def_370 (not .def_369))) (let ((.def_371 (or .def_370 .def_359))) (let ((.def_372 (and A10 .def_159))) (let ((.def_373 (not .def_372))) (let ((.def_374 (and .def_43 .def_158))) (let ((.def_375 (not .def_374))) (let ((.def_376 (or .def_375 .def_373))) (let ((.def_377 (not .def_376))) (let ((.def_378 (or .def_19 .def_16))) (let ((.def_379 (not .def_378))) (let ((.def_380 (or A9 .def_19))) (let ((.def_381 (not .def_380))) (let ((.def_382 (or .def_381 .def_379))) (let ((.def_383 (not .def_382))) (let ((.def_384 (or .def_383 .def_377))) (let ((.def_385 (and .def_48 .def_53))) (let ((.def_386 (not .def_385))) (let ((.def_387 (or A4 A22))) (let ((.def_388 (not .def_387))) (let ((.def_389 (or .def_388 .def_386))) (let ((.def_390 (or .def_72 A0))) (let ((.def_391 (not .def_390))) (let ((.def_392 (= A19 .def_26))) (let ((.def_393 (or .def_392 .def_391))) (let ((.def_394 (and .def_393 .def_389))) (let ((.def_395 (or .def_394 .def_384))) (let ((.def_396 (not .def_395))) (let ((.def_397 (or .def_396 .def_371))) (let ((.def_398 (= .def_397 .def_349))) (let ((.def_399 (and .def_398 .def_306))) (let ((.def_400 (and .def_399 .def_213))) .def_400))))))))))))))))))))))))))))))))))))))))))))))))))))))))))))))))))))))))))))))))))))))))))))))))))))))))))))))))))))))))))))))))))))))))))))))))))))))))))))))))))))))))))))))))))))))))))))))))))))))))))))))))))))))))))))))))))))))))))))))))))))))))))))))))))))))))))))))))))))))))))))))))))))))))))))))))))))))))))))))))))))))))))))))))))))))))))))))))))))))))))))))))))))))))))))))))))))))))))))))))))
(check-sat)
